(set-info :smt-lib-version 2.6)
(set-info :category "crafted")
(set-logic QF_FF)
(define-sort FF0 () (_ FiniteField 52435875175126190479447740508185965837690552500527637822603658699938581184513))
(declare-fun out_alt () FF0)
(declare-fun _88_alt () FF0)
(declare-fun _87_alt () FF0)
(declare-fun _48_alt () FF0)
(declare-fun _47_alt () FF0)
(declare-fun _86_alt () FF0)
(declare-fun _66_alt () FF0)
(declare-fun _85_alt () FF0)
(declare-fun _64_alt () FF0)
(declare-fun _84_alt () FF0)
(declare-fun _71_alt () FF0)
(declare-fun _83_alt () FF0)
(declare-fun _15_alt () FF0)
(declare-fun _82_alt () FF0)
(declare-fun _78_alt () FF0)
(declare-fun _77_alt () FF0)
(declare-fun _80_alt () FF0)
(declare-fun _34_alt () FF0)
(declare-fun _68_alt () FF0)
(declare-fun _24_alt () FF0)
(declare-fun _57_alt () FF0)
(declare-fun _56_alt () FF0)
(declare-fun _38_alt () FF0)
(declare-fun _73_alt () FF0)
(declare-fun _51_alt () FF0)
(declare-fun _22_alt () FF0)
(declare-fun _70_alt () FF0)
(declare-fun _50_alt () FF0)
(declare-fun _37_alt () FF0)
(declare-fun _65_alt () FF0)
(declare-fun _63_alt () FF0)
(declare-fun _1_alt () FF0)
(declare-fun _62_alt () FF0)
(declare-fun _61_alt () FF0)
(declare-fun _41_alt () FF0)
(declare-fun _60_alt () FF0)
(declare-fun _59_alt () FF0)
(declare-fun _43_alt () FF0)
(declare-fun _33_alt () FF0)
(declare-fun _20_alt () FF0)
(declare-fun _19_alt () FF0)
(declare-fun _3_alt () FF0)
(declare-fun _29_alt () FF0)
(declare-fun _28_alt () FF0)
(declare-fun _40_alt () FF0)
(declare-fun _7_alt () FF0)
(declare-fun _13_alt () FF0)
(declare-fun _12_alt () FF0)
(declare-fun _0_alt () FF0)
(declare-fun _32_alt () FF0)
(declare-fun _2_alt () FF0)
(declare-fun _31_alt () FF0)
(declare-fun _6_alt () FF0)
(declare-fun _23_alt () FF0)
(declare-fun _5_alt () FF0)
(declare-fun _4_alt () FF0)
(declare-fun out () FF0)
(declare-fun _88 () FF0)
(declare-fun _87 () FF0)
(declare-fun _48 () FF0)
(declare-fun _47 () FF0)
(declare-fun _86 () FF0)
(declare-fun _66 () FF0)
(declare-fun _85 () FF0)
(declare-fun _64 () FF0)
(declare-fun _84 () FF0)
(declare-fun _71 () FF0)
(declare-fun _83 () FF0)
(declare-fun _15 () FF0)
(declare-fun _82 () FF0)
(declare-fun _78 () FF0)
(declare-fun _77 () FF0)
(declare-fun _80 () FF0)
(declare-fun _34 () FF0)
(declare-fun _68 () FF0)
(declare-fun _24 () FF0)
(declare-fun _57 () FF0)
(declare-fun _56 () FF0)
(declare-fun _38 () FF0)
(declare-fun _73 () FF0)
(declare-fun _51 () FF0)
(declare-fun _22 () FF0)
(declare-fun _70 () FF0)
(declare-fun _50 () FF0)
(declare-fun _37 () FF0)
(declare-fun _65 () FF0)
(declare-fun _63 () FF0)
(declare-fun _1 () FF0)
(declare-fun _62 () FF0)
(declare-fun _61 () FF0)
(declare-fun _41 () FF0)
(declare-fun _60 () FF0)
(declare-fun _59 () FF0)
(declare-fun _43 () FF0)
(declare-fun _33 () FF0)
(declare-fun _20 () FF0)
(declare-fun _19 () FF0)
(declare-fun _3 () FF0)
(declare-fun _29 () FF0)
(declare-fun _28 () FF0)
(declare-fun _40 () FF0)
(declare-fun _7 () FF0)
(declare-fun _13 () FF0)
(declare-fun _12 () FF0)
(declare-fun _0 () FF0)
(declare-fun _32 () FF0)
(declare-fun _2 () FF0)
(declare-fun _31 () FF0)
(declare-fun _6 () FF0)
(declare-fun _23 () FF0)
(declare-fun _5 () FF0)
(declare-fun _4 () FF0)
(assert 
  (let ((let0 out_alt))
  (let ((let1 _88_alt))
  (let ((let2 (= let1 let0)))
  (let ((let3 (as ff52435875175126190479447740508185965837690552500527637822603658699938581184512 FF0)))
  (let ((let4 (ff.mul let1 let3)))
  (let ((let5 _87_alt))
  (let ((let6 _48_alt))
  (let ((let7 _47_alt))
  (let ((let8 (ff.add let7 let6 let5 let4)))
  (let ((let9 (ff.add let7 let6)))
  (let ((let10 (ff.mul let5 let9)))
  (let ((let11 (= let10 let8)))
  (let ((let12 (ff.mul let5 let3)))
  (let ((let13 _86_alt))
  (let ((let14 _66_alt))
  (let ((let15 (ff.add let14 let13 let12)))
  (let ((let16 (ff.mul let13 let14)))
  (let ((let17 (= let16 let15)))
  (let ((let18 (as ff1 FF0)))
  (let ((let19 (ff.mul let13 let3)))
  (let ((let20 _85_alt))
  (let ((let21 _64_alt))
  (let ((let22 (ff.mul let21 let3)))
  (let ((let23 (ff.add let22 let20 let19 let18)))
  (let ((let24 (ff.add let22 let18)))
  (let ((let25 (ff.mul let20 let24)))
  (let ((let26 (= let25 let23)))
  (let ((let27 (ff.mul let20 let3)))
  (let ((let28 _84_alt))
  (let ((let29 _71_alt))
  (let ((let30 (ff.add let29 let28 let27)))
  (let ((let31 (ff.mul let28 let29)))
  (let ((let32 (= let31 let30)))
  (let ((let33 (ff.mul let28 let3)))
  (let ((let34 _83_alt))
  (let ((let35 _15_alt))
  (let ((let36 (ff.add let35 let34 let33)))
  (let ((let37 (ff.mul let34 let35)))
  (let ((let38 (= let37 let36)))
  (let ((let39 (ff.mul let34 let3)))
  (let ((let40 _82_alt))
  (let ((let41 _78_alt))
  (let ((let42 _77_alt))
  (let ((let43 (ff.add let42 let41 let40 let39)))
  (let ((let44 (ff.add let42 let41)))
  (let ((let45 (ff.mul let40 let44)))
  (let ((let46 (= let45 let43)))
  (let ((let47 (ff.mul let40 let3)))
  (let ((let48 _80_alt))
  (let ((let49 _34_alt))
  (let ((let50 (ff.mul let49 let3)))
  (let ((let51 (ff.add let50 let48 let47 let18)))
  (let ((let52 (ff.add let50 let18)))
  (let ((let53 (ff.mul let52 let48)))
  (let ((let54 (= let53 let51)))
  (let ((let55 (ff.mul let48 let3)))
  (let ((let56 _68_alt))
  (let ((let57 (ff.mul let56 let3)))
  (let ((let58 _24_alt))
  (let ((let59 (ff.add let58 let57 let55 let18)))
  (let ((let60 (ff.add let57 let18)))
  (let ((let61 (ff.mul let60 let58)))
  (let ((let62 (= let61 let59)))
  (let ((let63 _57_alt))
  (let ((let64 _56_alt))
  (let ((let65 (ff.add let64 let63)))
  (let ((let66 _38_alt))
  (let ((let67 (ff.mul let66 let65)))
  (let ((let68 (= let67 let41)))
  (let ((let69 _73_alt))
  (let ((let70 (ff.mul let66 let3)))
  (let ((let71 (ff.add let70 let18)))
  (let ((let72 (ff.mul let71 let69)))
  (let ((let73 (= let72 let42)))
  (let ((let74 (as ff2 FF0)))
  (let ((let75 (ff.mul let69 let3)))
  (let ((let76 _51_alt))
  (let ((let77 (ff.mul let76 let3)))
  (let ((let78 _22_alt))
  (let ((let79 (ff.mul let78 let3)))
  (let ((let80 (ff.add let79 let77 let75 let74)))
  (let ((let81 (ff.add let77 let18)))
  (let ((let82 (ff.add let79 let18)))
  (let ((let83 (ff.mul let82 let81)))
  (let ((let84 (= let83 let80)))
  (let ((let85 (ff.mul let29 let3)))
  (let ((let86 _70_alt))
  (let ((let87 _50_alt))
  (let ((let88 (ff.add let87 let86 let85)))
  (let ((let89 (ff.mul let86 let87)))
  (let ((let90 (= let89 let88)))
  (let ((let91 (ff.mul let86 let3)))
  (let ((let92 (ff.mul let35 let3)))
  (let ((let93 (ff.add let92 let56 let91 let18)))
  (let ((let94 (ff.add let92 let18)))
  (let ((let95 (ff.mul let94 let56)))
  (let ((let96 (= let95 let93)))
  (let ((let97 _37_alt))
  (let ((let98 (ff.add let97 let66 let57)))
  (let ((let99 (ff.mul let66 let97)))
  (let ((let100 (= let99 let98)))
  (let ((let101 _65_alt))
  (let ((let102 (ff.mul let101 let21)))
  (let ((let103 (= let102 let14)))
  (let ((let104 (ff.mul let21 let78)))
  (let ((let105 (= let104 let101)))
  (let ((let106 _63_alt))
  (let ((let107 _1_alt))
  (let ((let108 (ff.add let107 let106 let22)))
  (let ((let109 (ff.mul let106 let107)))
  (let ((let110 (= let109 let108)))
  (let ((let111 (ff.mul let106 let3)))
  (let ((let112 _62_alt))
  (let ((let113 (ff.add let87 let112 let111)))
  (let ((let114 (ff.mul let112 let87)))
  (let ((let115 (= let114 let113)))
  (let ((let116 (ff.mul let112 let3)))
  (let ((let117 _61_alt))
  (let ((let118 _41_alt))
  (let ((let119 (ff.mul let118 let3)))
  (let ((let120 (ff.add let119 let117 let116 let18)))
  (let ((let121 (ff.add let119 let18)))
  (let ((let122 (ff.mul let117 let121)))
  (let ((let123 (= let122 let120)))
  (let ((let124 (ff.mul let117 let3)))
  (let ((let125 _60_alt))
  (let ((let126 (ff.add let119 let125 let124 let18)))
  (let ((let127 (ff.mul let125 let121)))
  (let ((let128 (= let127 let126)))
  (let ((let129 (ff.mul let125 let3)))
  (let ((let130 _59_alt))
  (let ((let131 (ff.add let50 let130 let129 let18)))
  (let ((let132 (ff.mul let130 let52)))
  (let ((let133 (= let132 let131)))
  (let ((let134 (ff.mul let130 let3)))
  (let ((let135 _43_alt))
  (let ((let136 (ff.add let135 let64 let63 let134)))
  (let ((let137 (ff.mul let65 let135)))
  (let ((let138 (= let137 let136)))
  (let ((let139 _33_alt))
  (let ((let140 (ff.mul let87 let3)))
  (let ((let141 (ff.add let140 let18)))
  (let ((let142 (ff.mul let141 let139)))
  (let ((let143 (= let142 let63)))
  (let ((let144 (ff.mul let87 let81)))
  (let ((let145 (= let144 let64)))
  (let ((let146 _20_alt))
  (let ((let147 _19_alt))
  (let ((let148 _3_alt))
  (let ((let149 (ff.mul let148 let3)))
  (let ((let150 (ff.add let149 let147 let146)))
  (let ((let151 (ff.mul let150 let150)))
  (let ((let152 (= let151 let76)))
  (let ((let153 _29_alt))
  (let ((let154 (ff.mul let153 let3)))
  (let ((let155 _28_alt))
  (let ((let156 (ff.mul let155 let3)))
  (let ((let157 (ff.add let156 let154 let139 let140 let18)))
  (let ((let158 (ff.add let156 let154 let18)))
  (let ((let159 (ff.mul let158 let139)))
  (let ((let160 (= let159 let157)))
  (let ((let161 (ff.mul let135 let3)))
  (let ((let162 (ff.add let161 let18)))
  (let ((let163 (ff.mul let162 let97)))
  (let ((let164 (= let163 let6)))
  (let ((let165 (ff.mul let135 let121)))
  (let ((let166 (= let165 let7)))
  (let ((let167 (ff.add let50 let97 let161 let18)))
  (let ((let168 (ff.mul let52 let97)))
  (let ((let169 (= let168 let167)))
  (let ((let170 _40_alt))
  (let ((let171 _7_alt))
  (let ((let172 (ff.add let171 let170 let3)))
  (let ((let173 (ff.mul let172 let172)))
  (let ((let174 (= let173 let118)))
  (let ((let175 (ff.mul let170 let3)))
  (let ((let176 _13_alt))
  (let ((let177 _12_alt))
  (let ((let178 (ff.add let177 let176 let66 let175)))
  (let ((let179 (ff.add let177 let176)))
  (let ((let180 (ff.mul let66 let179)))
  (let ((let181 (= let180 let178)))
  (let ((let182 (ff.mul let171 let3)))
  (let ((let183 _0_alt))
  (let ((let184 (ff.mul let183 let3)))
  (let ((let185 (ff.add let184 let182 let18)))
  (let ((let186 (ff.mul let185 let185)))
  (let ((let187 (= let186 let66)))
  (let ((let188 (ff.mul let97 let3)))
  (let ((let189 (ff.add let78 let50 let188 let18)))
  (let ((let190 (ff.mul let52 let78)))
  (let ((let191 (= let190 let189)))
  (let ((let192 (ff.add let92 let139)))
  (let ((let193 (ff.mul let192 let192)))
  (let ((let194 (= let193 let49)))
  (let ((let195 (ff.mul let139 let3)))
  (let ((let196 _32_alt))
  (let ((let197 _2_alt))
  (let ((let198 (ff.add let197 let196 let195)))
  (let ((let199 (ff.mul let196 let197)))
  (let ((let200 (= let199 let198)))
  (let ((let201 (ff.mul let196 let3)))
  (let ((let202 _31_alt))
  (let ((let203 (ff.add let58 let202 let201)))
  (let ((let204 (ff.mul let202 let58)))
  (let ((let205 (= let204 let203)))
  (let ((let206 (ff.mul let202 let3)))
  (let ((let207 (ff.mul let153 let74)))
  (let ((let208 (ff.mul let155 let74)))
  (let ((let209 (ff.add let208 let207 let206)))
  (let ((let210 (ff.add let155 let153)))
  (let ((let211 (ff.mul let210 let210)))
  (let ((let212 (= let211 let209)))
  (let ((let213 (ff.mul let58 let3)))
  (let ((let214 (ff.add let213 let18)))
  (let ((let215 (ff.mul let214 let107)))
  (let ((let216 (= let215 let153)))
  (let ((let217 _6_alt))
  (let ((let218 (ff.mul let58 let217)))
  (let ((let219 (= let218 let155)))
  (let ((let220 _23_alt))
  (let ((let221 (ff.add let183 let220 let213)))
  (let ((let222 (ff.mul let220 let183)))
  (let ((let223 (= let222 let221)))
  (let ((let224 (ff.mul let220 let3)))
  (let ((let225 (ff.add let148 let147 let146 let224)))
  (let ((let226 (ff.add let147 let146)))
  (let ((let227 (ff.mul let226 let148)))
  (let ((let228 (= let227 let225)))
  (let ((let229 (ff.mul let146 let3)))
  (let ((let230 (ff.mul let147 let3)))
  (let ((let231 (ff.add let148 let230 let229 let79 let18)))
  (let ((let232 (ff.add let230 let229 let18)))
  (let ((let233 (ff.mul let232 let148)))
  (let ((let234 (= let233 let231)))
  (let ((let235 (ff.mul let94 let35)))
  (let ((let236 (= let235 let146)))
  (let ((let237 (ff.mul let35 let179)))
  (let ((let238 (= let237 let147)))
  (let ((let239 (ff.add let182 let177 let176 let92 let18)))
  (let ((let240 (ff.add let182 let18)))
  (let ((let241 (ff.mul let179 let240)))
  (let ((let242 (= let241 let239)))
  (let ((let243 (ff.add let149 let18)))
  (let ((let244 (ff.mul let243 let197)))
  (let ((let245 (= let244 let176)))
  (let ((let246 (ff.mul let148 let217)))
  (let ((let247 (= let246 let177)))
  (let ((let248 (ff.mul let217 let3)))
  (let ((let249 (ff.add let107 let248)))
  (let ((let250 (ff.mul let249 let249)))
  (let ((let251 (= let250 let171)))
  (let ((let252 _5_alt))
  (let ((let253 (ff.mul let252 let183)))
  (let ((let254 (= let253 let217)))
  (let ((let255 _4_alt))
  (let ((let256 (ff.mul let255 let197)))
  (let ((let257 (= let256 let252)))
  (let ((let258 (ff.mul let107 let183)))
  (let ((let259 (= let258 let255)))
  (let ((let260 (ff.mul let148 let148)))
  (let ((let261 (= let260 let148)))
  (let ((let262 (ff.mul let197 let197)))
  (let ((let263 (= let262 let197)))
  (let ((let264 (ff.mul let107 let107)))
  (let ((let265 (= let264 let107)))
  (let ((let266 (ff.mul let183 let183)))
  (let ((let267 (= let266 let183)))
  (let ((let268 (and let267 let265 let263 let261 let259 let257 let254 let251 let247 let245 let242 let238 let236 let234 let228 let223 let219 let216 let212 let205 let200 let194 let191 let187 let181 let174 let169 let166 let164 let160 let152 let145 let143 let138 let133 let128 let123 let115 let110 let105 let103 let100 let96 let90 let84 let73 let68 let62 let54 let46 let38 let32 let26 let17 let11 let2)))
  (let ((let269 out))
  (let ((let270 _88))
  (let ((let271 (= let270 let269)))
  (let ((let272 (ff.mul let270 let3)))
  (let ((let273 _87))
  (let ((let274 _48))
  (let ((let275 _47))
  (let ((let276 (ff.add let275 let274 let273 let272)))
  (let ((let277 (ff.add let275 let274)))
  (let ((let278 (ff.mul let273 let277)))
  (let ((let279 (= let278 let276)))
  (let ((let280 (ff.mul let273 let3)))
  (let ((let281 _86))
  (let ((let282 _66))
  (let ((let283 (ff.add let282 let281 let280)))
  (let ((let284 (ff.mul let281 let282)))
  (let ((let285 (= let284 let283)))
  (let ((let286 (ff.mul let281 let3)))
  (let ((let287 _85))
  (let ((let288 _64))
  (let ((let289 (ff.mul let288 let3)))
  (let ((let290 (ff.add let289 let287 let286 let18)))
  (let ((let291 (ff.add let289 let18)))
  (let ((let292 (ff.mul let287 let291)))
  (let ((let293 (= let292 let290)))
  (let ((let294 (ff.mul let287 let3)))
  (let ((let295 _84))
  (let ((let296 _71))
  (let ((let297 (ff.add let296 let295 let294)))
  (let ((let298 (ff.mul let295 let296)))
  (let ((let299 (= let298 let297)))
  (let ((let300 (ff.mul let295 let3)))
  (let ((let301 _83))
  (let ((let302 _15))
  (let ((let303 (ff.add let302 let301 let300)))
  (let ((let304 (ff.mul let301 let302)))
  (let ((let305 (= let304 let303)))
  (let ((let306 (ff.mul let301 let3)))
  (let ((let307 _82))
  (let ((let308 _78))
  (let ((let309 _77))
  (let ((let310 (ff.add let309 let308 let307 let306)))
  (let ((let311 (ff.add let309 let308)))
  (let ((let312 (ff.mul let307 let311)))
  (let ((let313 (= let312 let310)))
  (let ((let314 (ff.mul let307 let3)))
  (let ((let315 _80))
  (let ((let316 _34))
  (let ((let317 (ff.mul let316 let3)))
  (let ((let318 (ff.add let317 let315 let314 let18)))
  (let ((let319 (ff.add let317 let18)))
  (let ((let320 (ff.mul let319 let315)))
  (let ((let321 (= let320 let318)))
  (let ((let322 (ff.mul let315 let3)))
  (let ((let323 _68))
  (let ((let324 (ff.mul let323 let3)))
  (let ((let325 _24))
  (let ((let326 (ff.add let325 let324 let322 let18)))
  (let ((let327 (ff.add let324 let18)))
  (let ((let328 (ff.mul let327 let325)))
  (let ((let329 (= let328 let326)))
  (let ((let330 _57))
  (let ((let331 _56))
  (let ((let332 (ff.add let331 let330)))
  (let ((let333 _38))
  (let ((let334 (ff.mul let333 let332)))
  (let ((let335 (= let334 let308)))
  (let ((let336 _73))
  (let ((let337 (ff.mul let333 let3)))
  (let ((let338 (ff.add let337 let18)))
  (let ((let339 (ff.mul let338 let336)))
  (let ((let340 (= let339 let309)))
  (let ((let341 (ff.mul let336 let3)))
  (let ((let342 _51))
  (let ((let343 (ff.mul let342 let3)))
  (let ((let344 _22))
  (let ((let345 (ff.mul let344 let3)))
  (let ((let346 (ff.add let345 let343 let341 let74)))
  (let ((let347 (ff.add let343 let18)))
  (let ((let348 (ff.add let345 let18)))
  (let ((let349 (ff.mul let348 let347)))
  (let ((let350 (= let349 let346)))
  (let ((let351 (ff.mul let296 let3)))
  (let ((let352 _70))
  (let ((let353 _50))
  (let ((let354 (ff.add let353 let352 let351)))
  (let ((let355 (ff.mul let352 let353)))
  (let ((let356 (= let355 let354)))
  (let ((let357 (ff.mul let352 let3)))
  (let ((let358 (ff.mul let302 let3)))
  (let ((let359 (ff.add let358 let323 let357 let18)))
  (let ((let360 (ff.add let358 let18)))
  (let ((let361 (ff.mul let360 let323)))
  (let ((let362 (= let361 let359)))
  (let ((let363 _37))
  (let ((let364 (ff.add let363 let333 let324)))
  (let ((let365 (ff.mul let333 let363)))
  (let ((let366 (= let365 let364)))
  (let ((let367 _65))
  (let ((let368 (ff.mul let367 let288)))
  (let ((let369 (= let368 let282)))
  (let ((let370 (ff.mul let288 let344)))
  (let ((let371 (= let370 let367)))
  (let ((let372 _63))
  (let ((let373 _1))
  (let ((let374 (ff.add let373 let372 let289)))
  (let ((let375 (ff.mul let372 let373)))
  (let ((let376 (= let375 let374)))
  (let ((let377 (ff.mul let372 let3)))
  (let ((let378 _62))
  (let ((let379 (ff.add let353 let378 let377)))
  (let ((let380 (ff.mul let378 let353)))
  (let ((let381 (= let380 let379)))
  (let ((let382 (ff.mul let378 let3)))
  (let ((let383 _61))
  (let ((let384 _41))
  (let ((let385 (ff.mul let384 let3)))
  (let ((let386 (ff.add let385 let383 let382 let18)))
  (let ((let387 (ff.add let385 let18)))
  (let ((let388 (ff.mul let383 let387)))
  (let ((let389 (= let388 let386)))
  (let ((let390 (ff.mul let383 let3)))
  (let ((let391 _60))
  (let ((let392 (ff.add let385 let391 let390 let18)))
  (let ((let393 (ff.mul let391 let387)))
  (let ((let394 (= let393 let392)))
  (let ((let395 (ff.mul let391 let3)))
  (let ((let396 _59))
  (let ((let397 (ff.add let317 let396 let395 let18)))
  (let ((let398 (ff.mul let396 let319)))
  (let ((let399 (= let398 let397)))
  (let ((let400 (ff.mul let396 let3)))
  (let ((let401 _43))
  (let ((let402 (ff.add let401 let331 let330 let400)))
  (let ((let403 (ff.mul let332 let401)))
  (let ((let404 (= let403 let402)))
  (let ((let405 _33))
  (let ((let406 (ff.mul let353 let3)))
  (let ((let407 (ff.add let406 let18)))
  (let ((let408 (ff.mul let407 let405)))
  (let ((let409 (= let408 let330)))
  (let ((let410 (ff.mul let353 let347)))
  (let ((let411 (= let410 let331)))
  (let ((let412 _20))
  (let ((let413 _19))
  (let ((let414 _3))
  (let ((let415 (ff.mul let414 let3)))
  (let ((let416 (ff.add let415 let413 let412)))
  (let ((let417 (ff.mul let416 let416)))
  (let ((let418 (= let417 let342)))
  (let ((let419 _29))
  (let ((let420 (ff.mul let419 let3)))
  (let ((let421 _28))
  (let ((let422 (ff.mul let421 let3)))
  (let ((let423 (ff.add let422 let420 let405 let406 let18)))
  (let ((let424 (ff.add let422 let420 let18)))
  (let ((let425 (ff.mul let424 let405)))
  (let ((let426 (= let425 let423)))
  (let ((let427 (ff.mul let401 let3)))
  (let ((let428 (ff.add let427 let18)))
  (let ((let429 (ff.mul let428 let363)))
  (let ((let430 (= let429 let274)))
  (let ((let431 (ff.mul let401 let387)))
  (let ((let432 (= let431 let275)))
  (let ((let433 (ff.add let317 let363 let427 let18)))
  (let ((let434 (ff.mul let319 let363)))
  (let ((let435 (= let434 let433)))
  (let ((let436 _40))
  (let ((let437 _7))
  (let ((let438 (ff.add let437 let436 let3)))
  (let ((let439 (ff.mul let438 let438)))
  (let ((let440 (= let439 let384)))
  (let ((let441 (ff.mul let436 let3)))
  (let ((let442 _13))
  (let ((let443 _12))
  (let ((let444 (ff.add let443 let442 let333 let441)))
  (let ((let445 (ff.add let443 let442)))
  (let ((let446 (ff.mul let333 let445)))
  (let ((let447 (= let446 let444)))
  (let ((let448 (ff.mul let437 let3)))
  (let ((let449 _0))
  (let ((let450 (ff.mul let449 let3)))
  (let ((let451 (ff.add let450 let448 let18)))
  (let ((let452 (ff.mul let451 let451)))
  (let ((let453 (= let452 let333)))
  (let ((let454 (ff.mul let363 let3)))
  (let ((let455 (ff.add let344 let317 let454 let18)))
  (let ((let456 (ff.mul let319 let344)))
  (let ((let457 (= let456 let455)))
  (let ((let458 (ff.add let358 let405)))
  (let ((let459 (ff.mul let458 let458)))
  (let ((let460 (= let459 let316)))
  (let ((let461 (ff.mul let405 let3)))
  (let ((let462 _32))
  (let ((let463 _2))
  (let ((let464 (ff.add let463 let462 let461)))
  (let ((let465 (ff.mul let462 let463)))
  (let ((let466 (= let465 let464)))
  (let ((let467 (ff.mul let462 let3)))
  (let ((let468 _31))
  (let ((let469 (ff.add let325 let468 let467)))
  (let ((let470 (ff.mul let468 let325)))
  (let ((let471 (= let470 let469)))
  (let ((let472 (ff.mul let468 let3)))
  (let ((let473 (ff.mul let419 let74)))
  (let ((let474 (ff.mul let421 let74)))
  (let ((let475 (ff.add let474 let473 let472)))
  (let ((let476 (ff.add let421 let419)))
  (let ((let477 (ff.mul let476 let476)))
  (let ((let478 (= let477 let475)))
  (let ((let479 (ff.mul let325 let3)))
  (let ((let480 (ff.add let479 let18)))
  (let ((let481 (ff.mul let480 let373)))
  (let ((let482 (= let481 let419)))
  (let ((let483 _6))
  (let ((let484 (ff.mul let325 let483)))
  (let ((let485 (= let484 let421)))
  (let ((let486 _23))
  (let ((let487 (ff.add let449 let486 let479)))
  (let ((let488 (ff.mul let486 let449)))
  (let ((let489 (= let488 let487)))
  (let ((let490 (ff.mul let486 let3)))
  (let ((let491 (ff.add let414 let413 let412 let490)))
  (let ((let492 (ff.add let413 let412)))
  (let ((let493 (ff.mul let492 let414)))
  (let ((let494 (= let493 let491)))
  (let ((let495 (ff.mul let412 let3)))
  (let ((let496 (ff.mul let413 let3)))
  (let ((let497 (ff.add let414 let496 let495 let345 let18)))
  (let ((let498 (ff.add let496 let495 let18)))
  (let ((let499 (ff.mul let498 let414)))
  (let ((let500 (= let499 let497)))
  (let ((let501 (ff.mul let360 let302)))
  (let ((let502 (= let501 let412)))
  (let ((let503 (ff.mul let302 let445)))
  (let ((let504 (= let503 let413)))
  (let ((let505 (ff.add let448 let443 let442 let358 let18)))
  (let ((let506 (ff.add let448 let18)))
  (let ((let507 (ff.mul let445 let506)))
  (let ((let508 (= let507 let505)))
  (let ((let509 (ff.add let415 let18)))
  (let ((let510 (ff.mul let509 let463)))
  (let ((let511 (= let510 let442)))
  (let ((let512 (ff.mul let414 let483)))
  (let ((let513 (= let512 let443)))
  (let ((let514 (ff.mul let483 let3)))
  (let ((let515 (ff.add let373 let514)))
  (let ((let516 (ff.mul let515 let515)))
  (let ((let517 (= let516 let437)))
  (let ((let518 _5))
  (let ((let519 (ff.mul let518 let449)))
  (let ((let520 (= let519 let483)))
  (let ((let521 _4))
  (let ((let522 (ff.mul let521 let463)))
  (let ((let523 (= let522 let518)))
  (let ((let524 (ff.mul let373 let449)))
  (let ((let525 (= let524 let521)))
  (let ((let526 (ff.mul let414 let414)))
  (let ((let527 (= let526 let414)))
  (let ((let528 (ff.mul let463 let463)))
  (let ((let529 (= let528 let463)))
  (let ((let530 (ff.mul let373 let373)))
  (let ((let531 (= let530 let373)))
  (let ((let532 (ff.mul let449 let449)))
  (let ((let533 (= let532 let449)))
  (let ((let534 (and let533 let531 let529 let527 let525 let523 let520 let517 let513 let511 let508 let504 let502 let500 let494 let489 let485 let482 let478 let471 let466 let460 let457 let453 let447 let440 let435 let432 let430 let426 let418 let411 let409 let404 let399 let394 let389 let381 let376 let371 let369 let366 let362 let356 let350 let340 let335 let329 let321 let313 let305 let299 let293 let285 let279 let271)))
  (let ((let535 (= let269 let0)))
  (let ((let536 (not let535)))
  (let ((let537 (= let449 let183)))
  (let ((let538 (= let373 let107)))
  (let ((let539 (= let463 let197)))
  (let ((let540 (= let414 let148)))
  (let ((let541 (and let540 let539 let538 let537)))
  (let ((let542 (and let541 let536 let534 let268)))
  let542
)))))))))))))))))))))))))))))))))))))))))))))))))))))))))))))))))))))))))))))))))))))))))))))))))))))))))))))))))))))))))))))))))))))))))))))))))))))))))))))))))))))))))))))))))))))))))))))))))))))))))))))))))))))))))))))))))))))))))))))))))))))))))))))))))))))))))))))))))))))))))))))))))))))))))))))))))))))))))))))))))))))))))))))))))))))))))))))))))))))))))))))))))))))))))))))))))))))))))))))))))))))))))))))))))))))))))))))))))))))))))))))))))))))))))))))))))))))))))))))))))))))))))))))))))))))))))))))))))))))))))))))))))))))))))))))))
)
(check-sat)
